\ENCODING=ISO-8859-1
\Problem name: IloCplex

Minimize
 obj: 30 p_0 + 3000 y_0 + 3 I_0_0 + 3 I_1_0 + 3 I_2_0 + 3 I_3_0 + 81 X_0_1_0
      + 225 X_0_2_0 + 146 X_0_3_0 + 81 X_1_0_0 + 156 X_1_2_0 + 218 X_1_3_0
      + 225 X_2_0_0 + 156 X_2_1_0 + 327 X_2_3_0 + 146 X_3_0_0 + 218 X_3_1_0
      + 327 X_3_2_0 + 30 p_1 + 3000 y_1 + 3 I_0_1 + 3 I_1_1 + 3 I_2_1 + 3 I_3_1
      + 81 X_0_1_1 + 225 X_0_2_1 + 146 X_0_3_1 + 81 X_1_0_1 + 156 X_1_2_1
      + 218 X_1_3_1 + 225 X_2_0_1 + 156 X_2_1_1 + 327 X_2_3_1 + 146 X_3_0_1
      + 218 X_3_1_1 + 327 X_3_2_1 + 30 p_2 + 3000 y_2 + 3 I_0_2 + 3 I_1_2
      + 3 I_2_2 + 3 I_3_2 + 81 X_0_1_2 + 225 X_0_2_2 + 146 X_0_3_2 + 81 X_1_0_2
      + 156 X_1_2_2 + 218 X_1_3_2 + 225 X_2_0_2 + 156 X_2_1_2 + 327 X_2_3_2
      + 146 X_3_0_2 + 218 X_3_1_2 + 327 X_3_2_2
Subject To
 C2_t1:         I_0_0 + p_1 - I_0_1 - Q_1_1 - Q_2_1 - Q_3_1  = 0
 C2_t2:         I_0_1 + p_2 - I_0_2 - Q_1_2 - Q_2_2 - Q_3_2  = 0
 C3_i1;t1:      I_1_0 - I_1_1 + Q_1_1  = 20
 C3_i1;t2:      I_1_1 - I_1_2 + Q_1_2  = 30
 C3_i2;t1:      I_2_0 - I_2_1 + Q_2_1  = 50
 C3_i2;t2:      I_2_1 - I_2_2 + Q_2_2  = 60
 C3_i3;t1:      I_3_0 - I_3_1 + Q_3_1  = 80
 C3_i3;t2:      I_3_1 - I_3_2 + Q_3_2  = 90
 C4_t0:         p_0 - 360 y_0 <= 0
 C4_t1:         p_1 - 300 y_1 <= 0
 C4_t2:         p_2 - 180 y_2 <= 0
 C5_t0:         I_0_0 <= 10000000000
 C5_t1:         I_0_1 <= 10000000000
 C5_t2:         I_0_2 <= 10000000000
 C6_i1;t1:      I_1_0 + Q_1_1 <= 2000
 C6_i1;t2:      I_1_1 + Q_1_2 <= 2000
 C6_i2;t1:      I_2_0 + Q_2_1 <= 4500
 C6_i2;t2:      I_2_1 + Q_2_2 <= 4500
 C6_i3;t1:      I_3_0 + Q_3_1 <= 4500
 C6_i3;t2:      I_3_1 + Q_3_2 <= 4500
 C7_i1;t0:      - 60 Z_1_0 + Q_1_0 <= 0
 C7_i1;t1:      Q_1_1 - 50 Z_1_1 <= 0
 C7_i1;t2:      Q_1_2 - 30 Z_1_2 <= 0
 C7_i2;t0:      - 150 Z_2_0 + Q_2_0 <= 0
 C7_i2;t1:      Q_2_1 - 110 Z_2_1 <= 0
 C7_i2;t2:      Q_2_2 - 60 Z_2_2 <= 0
 C7_i3;t0:      - 200 Z_3_0 + Q_3_0 <= 0
 C7_i3;t1:      Q_3_1 - 170 Z_3_1 <= 0
 C7_i3;t2:      Q_3_2 - 90 Z_3_2 <= 0
 C8_i1;t0:      X_0_1_0 + X_2_1_0 + X_3_1_0 - Z_1_0 + X_1_1_0  = 0
 C8_i1;t1:      X_0_1_1 + X_2_1_1 + X_3_1_1 - Z_1_1 + X_1_1_1  = 0
 C8_i1;t2:      X_0_1_2 + X_2_1_2 + X_3_1_2 - Z_1_2 + X_1_1_2  = 0
 C8_i2;t0:      X_0_2_0 + X_1_2_0 + X_3_2_0 - Z_2_0 + X_2_2_0  = 0
 C8_i2;t1:      X_0_2_1 + X_1_2_1 + X_3_2_1 - Z_2_1 + X_2_2_1  = 0
 C8_i2;t2:      X_0_2_2 + X_1_2_2 + X_3_2_2 - Z_2_2 + X_2_2_2  = 0
 C8_i3;t0:      X_0_3_0 + X_1_3_0 + X_2_3_0 - Z_3_0 + X_3_3_0  = 0
 C8_i3;t1:      X_0_3_1 + X_1_3_1 + X_2_3_1 - Z_3_1 + X_3_3_1  = 0
 C8_i3;t2:      X_0_3_2 + X_1_3_2 + X_2_3_2 - Z_3_2 + X_3_3_2  = 0
 C9_i1;t0:      X_0_1_0 + X_1_0_0 + X_1_2_0 + X_1_3_0 + X_2_1_0 + X_3_1_0
                - 2 Z_1_0 + 2 X_1_1_0  = 0
 C9_i1;t1:      X_0_1_1 + X_1_0_1 + X_1_2_1 + X_1_3_1 + X_2_1_1 + X_3_1_1
                - 2 Z_1_1 + 2 X_1_1_1  = 0
 C9_i1;t2:      X_0_1_2 + X_1_0_2 + X_1_2_2 + X_1_3_2 + X_2_1_2 + X_3_1_2
                - 2 Z_1_2 + 2 X_1_1_2  = 0
 C9_i2;t0:      X_0_2_0 + X_1_2_0 + X_2_0_0 + X_2_1_0 + X_2_3_0 + X_3_2_0
                - 2 Z_2_0 + 2 X_2_2_0  = 0
 C9_i2;t1:      X_0_2_1 + X_1_2_1 + X_2_0_1 + X_2_1_1 + X_2_3_1 + X_3_2_1
                - 2 Z_2_1 + 2 X_2_2_1  = 0
 C9_i2;t2:      X_0_2_2 + X_1_2_2 + X_2_0_2 + X_2_1_2 + X_2_3_2 + X_3_2_2
                - 2 Z_2_2 + 2 X_2_2_2  = 0
 C9_i3;t0:      X_0_3_0 + X_1_3_0 + X_2_3_0 + X_3_0_0 + X_3_1_0 + X_3_2_0
                - 2 Z_3_0 + 2 X_3_3_0  = 0
 C9_i3;t1:      X_0_3_1 + X_1_3_1 + X_2_3_1 + X_3_0_1 + X_3_1_1 + X_3_2_1
                - 2 Z_3_1 + 2 X_3_3_1  = 0
 C9_i3;t2:      X_0_3_2 + X_1_3_2 + X_2_3_2 + X_3_0_2 + X_3_1_2 + X_3_2_2
                - 2 Z_3_2 + 2 X_3_3_2  = 0
 C10_t0:        Z_0_0 <= 5
 C10_t1:        Z_0_1 <= 5
 C10_t2:        Z_0_2 <= 5
 C11_x(0;1);t0: W_0_0 - W_1_0 - Q_0_0 >= 0
 C11_x(0;1);t1: W_0_1 - W_1_1 - Q_0_1 >= 0
 C11_x(0;1);t2: W_0_2 - W_1_2 - Q_0_2 >= 0
 C11_x(0;2);t0: W_0_0 - Q_0_0 - W_2_0 >= 0
 C11_x(0;2);t1: W_0_1 - Q_0_1 - W_2_1 >= 0
 C11_x(0;2);t2: W_0_2 - Q_0_2 - W_2_2 >= 0
 C11_x(0;3);t0: W_0_0 - Q_0_0 - W_3_0 >= 0
 C11_x(0;3);t1: W_0_1 - Q_0_1 - W_3_1 >= 0
 C11_x(0;3);t2: W_0_2 - Q_0_2 - W_3_2 >= 0
 C11_x(1;0);t0: - 60 X_1_0_0 - Q_1_0 - W_0_0 + W_1_0 >= -60
 C11_x(1;0);t1: - 50 X_1_0_1 - Q_1_1 - W_0_1 + W_1_1 >= -50
 C11_x(1;0);t2: - 30 X_1_0_2 - Q_1_2 - W_0_2 + W_1_2 >= -30
 C11_x(1;2);t0: - 60 X_1_2_0 - Q_1_0 + W_1_0 - W_2_0 >= -60
 C11_x(1;2);t1: - 50 X_1_2_1 - Q_1_1 + W_1_1 - W_2_1 >= -50
 C11_x(1;2);t2: - 30 X_1_2_2 - Q_1_2 + W_1_2 - W_2_2 >= -30
 C11_x(1;3);t0: - 60 X_1_3_0 - Q_1_0 + W_1_0 - W_3_0 >= -60
 C11_x(1;3);t1: - 50 X_1_3_1 - Q_1_1 + W_1_1 - W_3_1 >= -50
 C11_x(1;3);t2: - 30 X_1_3_2 - Q_1_2 + W_1_2 - W_3_2 >= -30
 C11_x(2;0);t0: - 150 X_2_0_0 - Q_2_0 - W_0_0 + W_2_0 >= -150
 C11_x(2;0);t1: - 110 X_2_0_1 - Q_2_1 - W_0_1 + W_2_1 >= -110
 C11_x(2;0);t2: - 60 X_2_0_2 - Q_2_2 - W_0_2 + W_2_2 >= -60
 C11_x(2;1);t0: - 150 X_2_1_0 - Q_2_0 - W_1_0 + W_2_0 >= -150
 C11_x(2;1);t1: - 110 X_2_1_1 - Q_2_1 - W_1_1 + W_2_1 >= -110
 C11_x(2;1);t2: - 60 X_2_1_2 - Q_2_2 - W_1_2 + W_2_2 >= -60
 C11_x(2;3);t0: - 150 X_2_3_0 - Q_2_0 + W_2_0 - W_3_0 >= -150
 C11_x(2;3);t1: - 110 X_2_3_1 - Q_2_1 + W_2_1 - W_3_1 >= -110
 C11_x(2;3);t2: - 60 X_2_3_2 - Q_2_2 + W_2_2 - W_3_2 >= -60
 C11_x(3;0);t0: - 200 X_3_0_0 - Q_3_0 - W_0_0 + W_3_0 >= -200
 C11_x(3;0);t1: - 170 X_3_0_1 - Q_3_1 - W_0_1 + W_3_1 >= -170
 C11_x(3;0);t2: - 90 X_3_0_2 - Q_3_2 - W_0_2 + W_3_2 >= -90
 C11_x(3;1);t0: - 200 X_3_1_0 - Q_3_0 - W_1_0 + W_3_0 >= -200
 C11_x(3;1);t1: - 170 X_3_1_1 - Q_3_1 - W_1_1 + W_3_1 >= -170
 C11_x(3;1);t2: - 90 X_3_1_2 - Q_3_2 - W_1_2 + W_3_2 >= -90
 C11_x(3;2);t0: - 200 X_3_2_0 - Q_3_0 - W_2_0 + W_3_0 >= -200
 C11_x(3;2);t1: - 170 X_3_2_1 - Q_3_1 - W_2_1 + W_3_1 >= -170
 C11_x(3;2);t2: - 90 X_3_2_2 - Q_3_2 - W_2_2 + W_3_2 >= -90
 C12_i1;t0:     - 200 Z_1_0 + W_1_0 <= 0
 C12_i1;t1:     - 200 Z_1_1 + W_1_1 <= 0
 C12_i1;t2:     - 200 Z_1_2 + W_1_2 <= 0
 C12_i2;t0:     - 200 Z_2_0 + W_2_0 <= 0
 C12_i2;t1:     - 200 Z_2_1 + W_2_1 <= 0
 C12_i2;t2:     - 200 Z_2_2 + W_2_2 <= 0
 C12_i3;t0:     - 200 Z_3_0 + W_3_0 <= 0
 C12_i3;t1:     - 200 Z_3_1 + W_3_1 <= 0
 C12_i3;t2:     - 200 Z_3_2 + W_3_2 <= 0
Bounds
 0 <= y_0 <= 1
      I_0_0 = 0
      I_1_0 = 0
      I_2_0 = 0
      I_3_0 = 0
 0 <= X_0_1_0 <= 1
 0 <= X_0_2_0 <= 1
 0 <= X_0_3_0 <= 1
 0 <= X_1_0_0 <= 1
 0 <= X_1_2_0 <= 1
 0 <= X_1_3_0 <= 1
 0 <= X_2_0_0 <= 1
 0 <= X_2_1_0 <= 1
 0 <= X_2_3_0 <= 1
 0 <= X_3_0_0 <= 1
 0 <= X_3_1_0 <= 1
 0 <= X_3_2_0 <= 1
 0 <= y_1 <= 1
 0 <= I_0_1 <= 10000000000
 0 <= I_1_1 <= 2000
 0 <= I_2_1 <= 4500
 0 <= I_3_1 <= 4500
 0 <= X_0_1_1 <= 1
 0 <= X_0_2_1 <= 1
 0 <= X_0_3_1 <= 1
 0 <= X_1_0_1 <= 1
 0 <= X_1_2_1 <= 1
 0 <= X_1_3_1 <= 1
 0 <= X_2_0_1 <= 1
 0 <= X_2_1_1 <= 1
 0 <= X_2_3_1 <= 1
 0 <= X_3_0_1 <= 1
 0 <= X_3_1_1 <= 1
 0 <= X_3_2_1 <= 1
 0 <= y_2 <= 1
 0 <= I_0_2 <= 10000000000
 0 <= I_1_2 <= 2000
 0 <= I_2_2 <= 4500
 0 <= I_3_2 <= 4500
 0 <= X_0_1_2 <= 1
 0 <= X_0_2_2 <= 1
 0 <= X_0_3_2 <= 1
 0 <= X_1_0_2 <= 1
 0 <= X_1_2_2 <= 1
 0 <= X_1_3_2 <= 1
 0 <= X_2_0_2 <= 1
 0 <= X_2_1_2 <= 1
 0 <= X_2_3_2 <= 1
 0 <= X_3_0_2 <= 1
 0 <= X_3_1_2 <= 1
 0 <= X_3_2_2 <= 1
 0 <= Q_1_1 <= 200
 0 <= Q_2_1 <= 200
 0 <= Q_3_1 <= 200
 0 <= Q_1_2 <= 200
 0 <= Q_2_2 <= 200
 0 <= Q_3_2 <= 200
 0 <= Z_1_0 <= 1
 0 <= Q_1_0 <= 200
 0 <= Z_1_1 <= 1
 0 <= Z_1_2 <= 1
 0 <= Z_2_0 <= 1
 0 <= Q_2_0 <= 200
 0 <= Z_2_1 <= 1
 0 <= Z_2_2 <= 1
 0 <= Z_3_0 <= 1
 0 <= Q_3_0 <= 200
 0 <= Z_3_1 <= 1
 0 <= Z_3_2 <= 1
 0 <= X_1_1_0 <= 1
 0 <= X_1_1_1 <= 1
 0 <= X_1_1_2 <= 1
 0 <= X_2_2_0 <= 1
 0 <= X_2_2_1 <= 1
 0 <= X_2_2_2 <= 1
 0 <= X_3_3_0 <= 1
 0 <= X_3_3_1 <= 1
 0 <= X_3_3_2 <= 1
 0 <= Z_0_0 <= 5
 0 <= Z_0_1 <= 5
 0 <= Z_0_2 <= 5
 0 <= W_0_0 <= 200
 0 <= W_1_0 <= 200
 0 <= Q_0_0 <= 200
 0 <= W_0_1 <= 200
 0 <= W_1_1 <= 200
 0 <= Q_0_1 <= 200
 0 <= W_0_2 <= 200
 0 <= W_1_2 <= 200
 0 <= Q_0_2 <= 200
 0 <= W_2_0 <= 200
 0 <= W_2_1 <= 200
 0 <= W_2_2 <= 200
 0 <= W_3_0 <= 200
 0 <= W_3_1 <= 200
 0 <= W_3_2 <= 200
Binaries
 y_0  X_0_1_0  X_0_2_0  X_0_3_0  X_1_0_0  X_1_2_0  X_1_3_0  X_2_0_0  X_2_1_0 
 X_2_3_0  X_3_0_0  X_3_1_0  X_3_2_0  y_1  X_0_1_1  X_0_2_1  X_0_3_1  X_1_0_1 
 X_1_2_1  X_1_3_1  X_2_0_1  X_2_1_1  X_2_3_1  X_3_0_1  X_3_1_1  X_3_2_1  y_2 
 X_0_1_2  X_0_2_2  X_0_3_2  X_1_0_2  X_1_2_2  X_1_3_2  X_2_0_2  X_2_1_2 
 X_2_3_2  X_3_0_2  X_3_1_2  X_3_2_2  Z_1_0  Z_1_1  Z_1_2  Z_2_0  Z_2_1  Z_2_2 
 Z_3_0  Z_3_1  Z_3_2  X_1_1_0  X_1_1_1  X_1_1_2  X_2_2_0  X_2_2_1  X_2_2_2 
 X_3_3_0  X_3_3_1  X_3_3_2 
End
